
Gurobi 10.0.3 (linux64, gurobi_cl) logging started Fri Nov 10 18:56:11 2023

Set parameter Username
Set parameter TimeLimit to value 3600
Set parameter LogFile to value "RCPSP_1694.log"
Set parameter Threads to value 32
Academic license - for non-commercial use only - expires 2024-11-06
Using license file /home/jrivera6/gurobi-licenses/v1003/compute-0-36/gurobi.lic

Gurobi Optimizer version 10.0.3 build v10.0.3rc0 (linux64)
Copyright (c) 2023, Gurobi Optimization, LLC

Read MPS format model from file RCPSP_1694.mps
Reading time = 0.13 seconds
RCPSP_1694: 75251 rows, 29890 columns, 251666 nonzeros

CPU model: Intel(R) Xeon(R) Gold 6130 CPU @ 2.10GHz, instruction set [SSE2|AVX|AVX2|AVX512]
Thread count: 32 physical cores, 32 logical processors, using up to 32 threads

Optimize a model with 75251 rows, 29890 columns and 251666 nonzeros
Model fingerprint: 0xdc5b8593
Variable types: 122 continuous, 29768 integer (29768 binary)
Coefficient statistics:
  Matrix range     [1e+00, 7e+02]
  Objective range  [1e+00, 1e+00]
  Bounds range     [1e+00, 1e+00]
  RHS range        [1e+00, 7e+02]
Presolve removed 19486 rows and 5164 columns (presolve time = 5s) ...
Presolve removed 19486 rows and 5164 columns (presolve time = 10s) ...
Presolve removed 23268 rows and 6386 columns
Presolve time: 10.46s
Presolved: 51983 rows, 23504 columns, 179190 nonzeros
Variable types: 121 continuous, 23383 integer (23383 binary)

Deterministic concurrent LP optimizer: primal and dual simplex (primal and dual model)
Showing first log only...

Root relaxation presolved: 51977 rows, 23510 columns, 179178 nonzeros


Root simplex log...

Iteration    Objective       Primal Inf.    Dual Inf.      Time
       0    1.0903630e+02   5.030584e-02   1.736221e+08     87s
    3446    1.0800000e+02   0.000000e+00   0.000000e+00     88s
    3446    1.0800000e+02   0.000000e+00   0.000000e+00     89s
Concurrent spin time: 0.89s

Solved with dual simplex (dual model)

Root relaxation: objective 1.080000e+02, 25580 iterations, 78.55 seconds (0.31 work units)
Total elapsed time = 95.92s

    Nodes    |    Current Node    |     Objective Bounds      |     Work
 Expl Unexpl |  Obj  Depth IntInf | Incumbent    BestBd   Gap | It/Node Time

     0     0  108.00000    0 1134          -  108.00000      -     -  132s
     0     0  108.00000    0 1104          -  108.00000      -     -  133s
     0     0  108.00000    0 1104          -  108.00000      -     -  133s
     0     0  108.00000    0 2120          -  108.00000      -     -  218s
     0     0  108.00000    0 2086          -  108.00000      -     -  227s
     0     0  108.00000    0 1957          -  108.00000      -     -  228s
     0     0  108.02131    0 2084          -  108.02131      -     -  236s
     0     0  108.02131    0 1037          -  108.02131      -     -  332s
     0     0  108.02131    0 1016          -  108.02131      -     -  333s
     0     0  108.02131    0 1751          -  108.02131      -     -  391s
     0     0  108.02131    0 1675          -  108.02131      -     -  393s
     0     0  108.02131    0 1671          -  108.02131      -     -  393s
     0     0  108.80000    0 1862          -  108.80000      -     -  452s
     0     0  108.80000    0 1855          -  108.80000      -     -  452s
     0     0  110.00000    0 1836          -  110.00000      -     -  464s
     0     0  110.00000    0 1714          -  110.00000      -     -  466s
     0     0  110.00000    0 1850          -  110.00000      -     -  468s
     0     0  110.00000    0 1845          -  110.00000      -     -  469s
     0     0  110.00000    0 2011          -  110.00000      -     -  474s
     0     0  110.00000    0 1906          -  110.00000      -     -  476s
     0     0  110.00000    0 1855          -  110.00000      -     -  478s
     0     0  110.00000    0 1786          -  110.00000      -     -  478s
     0     0  111.59905    0 1970          -  111.59905      -     -  483s
     0     0  111.59905    0 1968          -  111.59905      -     -  490s
     0     0  111.59905    0 1862          -  111.59905      -     -  494s
     0     0  111.59905    0 1771          -  111.59905      -     -  498s
     0     0  111.59905    0 1702          -  111.59905      -     -  499s
     0     0  111.99920    0 1696          -  111.99920      -     -  513s
     0     0  111.99920    0 1690          -  111.99920      -     -  513s
     0     0  112.39680    0 1758          -  112.39680      -     -  524s
     0     0  112.39680    0 1699          -  112.39680      -     -  525s
     0     0  112.39680    0 1731          -  112.39680      -     -  535s
     0     0  112.39680    0 1691          -  112.39680      -     -  535s
     0     0  112.66370    0 1795          -  112.66370      -     -  546s
     0     0  112.66370    0 1761          -  112.66370      -     -  549s
     0     0  112.66370    0 1734          -  112.66370      -     -  550s
     0     0  112.66370    0 1734          -  112.66370      -     -  572s
     0     0  112.66370    0 1581          -  112.66370      -     -  575s
     0     0  112.66370    0 1547          -  112.66370      -     -  575s
     0     0  112.66370    0 1545          -  112.66370      -     -  575s
     0     0  112.66370    0 1642          -  112.66370      -     -  583s
     0     0  112.66370    0 1539          -  112.66370      -     -  585s
     0     0  112.66370    0 1537          -  112.66370      -     -  585s
     0     0  112.66370    0 1718          -  112.66370      -     -  598s
     0     0  112.66370    0 1725          -  112.66370      -     -  602s
     0     0  112.66370    0 1679          -  112.66370      -     -  603s
     0     0  113.00006    0  848          -  113.00006      -     -  627s
     0     0  113.00006    0  846          -  113.00006      -     -  627s
     0     0  113.00160    0 1243          -  113.00160      -     -  639s
     0     0  113.00160    0 1159          -  113.00160      -     -  639s
     0     0  113.00193    0 1228          -  113.00193      -     -  644s
     0     0  113.00193    0 1205          -  113.00193      -     -  645s
     0     0  113.00317    0 1457          -  113.00317      -     -  658s
     0     0  113.00317    0 1469          -  113.00317      -     -  661s
     0     0  113.00317    0 1471          -  113.00317      -     -  662s
     0     0  113.00317    0 1466          -  113.00317      -     -  663s
     0     0  113.00331    0 1639          -  113.00331      -     -  674s
     0     0  113.00331    0 1549          -  113.00331      -     -  676s
     0     0  113.00331    0 1520          -  113.00331      -     -  676s
     0     0  113.04201    0 1492          -  113.04201      -     -  682s
     0     0  113.04201    0 1472          -  113.04201      -     -  682s
     0     0  113.06601    0 1460          -  113.06601      -     -  686s
     0     0  113.06601    0 1442          -  113.06601      -     -  687s
     0     0  113.06601    0 1699          -  113.06601      -     -  695s
     0     0  113.06601    0 1517          -  113.06601      -     -  696s
     0     0  113.07835    0 1447          -  113.07835      -     -  704s
     0     0  113.07835    0 1439          -  113.07835      -     -  704s
     0     0  113.08945    0 1500          -  113.08945      -     -  718s
     0     0  113.08945    0 1364          -  113.08945      -     -  719s
     0     0  113.08945    0 1361          -  113.08945      -     -  719s
     0     0  113.10389    0 1360          -  113.10389      -     -  722s
     0     0  113.10389    0 1345          -  113.10389      -     -  723s
     0     0  113.10389    0 1456          -  113.10389      -     -  725s
     0     0  113.10389    0 1608          -  113.10389      -     -  728s
     0     0  113.10389    0 1548          -  113.10389      -     -  730s
     0     0  113.10389    0 1546          -  113.10389      -     -  730s
     0     0  113.13135    0 1517          -  113.13135      -     -  743s
     0     0  113.13135    0 1395          -  113.13135      -     -  744s
     0     0  113.13135    0 1377          -  113.13135      -     -  745s
     0     0  113.13242    0 1539          -  113.13242      -     -  752s
     0     0  113.13242    0 1401          -  113.13242      -     -  754s
     0     0  113.13242    0 1395          -  113.13242      -     -  754s
     0     0  113.13242    0 1466          -  113.13242      -     -  759s
     0     0  113.13242    0 1439          -  113.13242      -     -  759s
     0     0  113.15649    0 1473          -  113.15649      -     -  764s
     0     0  113.15649    0 1501          -  113.15649      -     -  766s
     0     0  113.15649    0 1570          -  113.15649      -     -  778s
     0     0  113.15649    0 1560          -  113.15649      -     -  778s
     0     0  113.59680    0 1491          -  113.59680      -     -  800s
     0     0  113.59680    0 1461          -  113.59680      -     -  803s
     0     0  113.59680    0 1450          -  113.59680      -     -  805s
     0     0  113.59680    0 1518          -  113.59680      -     -  821s
     0     0  113.59680    0 1428          -  113.59680      -     -  821s
     0     0  113.59680    0 1481          -  113.59680      -     -  831s
     0     0  113.59680    0 1414          -  113.59680      -     -  831s
     0     0  113.59680    0 1443          -  113.59680      -     -  849s
     0     0  113.59680    0 1420          -  113.59680      -     -  849s
     0     0  113.59680    0  897          -  113.59680      -     -  882s
     0     0  113.59680    0  965          -  113.59680      -     -  883s
     0     0  113.59680    0 1337          -  113.59680      -     -  893s
     0     0  113.59680    0 1329          -  113.59680      -     -  893s
     0     0  113.59680    0  962          -  113.59680      -     -  916s
     0     0  113.59680    0  953          -  113.59680      -     -  916s
     0     0  113.59680    0 1315          -  113.59680      -     -  923s
     0     0  113.59680    0 1307          -  113.59680      -     -  923s
     0     0  113.59680    0 1031          -  113.59680      -     -  957s
     0     0  113.59680    0 1027          -  113.59680      -     -  957s
     0     0  113.59680    0 1027          -  113.59680      -     -  957s
     0     0  113.59680    0 1002          -  113.59680      -     -  968s
     0     0  113.59680    0  999          -  113.59680      -     -  969s
     0     0  113.59680    0  834          -  113.59680      -     -  970s
     0     2  113.59680    0  786          -  113.59680      -     - 1020s
     1     4  113.99113    1  770          -  113.99113      -  5886 1027s
     3     5  113.99113    2  811          -  113.99113      -  2213 1038s
     6    10  115.01497    3 1445          -  113.99113      -  1507 1080s
    11    17  117.18182    4 1123          -  114.50000      -  1580 1134s
    21    31  119.50000    5 1030          -  114.50000      -  1211 1301s
    38    52  121.00000    6 1064          -  116.00000      -  1028 1470s
    69    80  121.00000    7 1061          -  117.00000      -  1151 1505s
   101   111  121.00178    8 1126          -  117.00000      -  1163 1520s
   133   143  122.00000    9  997          -  117.00000      -   939 1533s
   165   187  122.00000    9 1018          -  117.00000      -   799 1549s
   212   234  123.00000   10  973          -  117.00000      -   659 1560s
   265   287  123.00000   11  974          -  117.00000      -   557 1575s
   323   345  123.00000   13  976          -  117.00000      -   477 1599s
   389   419  123.00000   16  972          -  117.00000      -   416 1607s
   465   498  123.00000   19  970          -  117.00000      -   360 1632s
   546   575  123.00000   22 1080          -  117.00000      -   315 1640s
   628   663  123.00000   22  962          -  117.00000      -   285 1761s
   719   735  126.00000   26 1032          -  117.00000      -   261 1843s
   803   812  126.00000   29 1034          -  117.00000      -   247 1863s
   896   884  126.00000   32 1062          -  117.00000      -   235 1901s
   980   997  126.00000   36 1051          -  117.00000      -   229 2000s
  1115  1105  126.00000   43 1043          -  117.00000      -   211 2011s
  1237  1243  126.00000   45 1041          -  117.00000      -   200 2020s
  1383  1383  126.00000   53 1016          -  117.00000      -   188 2030s
  1529  1524  126.00000   55 1025          -  117.00000      -   177 2044s
  1679  1658  126.00000   63 1018          -  117.00000      -   168 2053s
  1819  1837  126.00000   65  989          -  117.00000      -   162 2067s
  2004  2010  126.00000   72  990          -  117.00000      -   153 2076s
  2188  2239  126.00000   82  997          -  117.00000      -   146 2098s
  2422  2461  126.00000   87  982          -  117.00000      -   137 2107s
  2664  2654  126.00000   98  995          -  117.00000      -   130 2143s
  2879  2755  126.00000  103 1005          -  117.00000      -   126 2243s
  2995  2931  126.00000  105 1071          -  117.00000      -   127 2297s
  3194  3137  126.00000  108 1061          -  117.00000      -   125 2344s
  3426  3348  126.00000  115 1045          -  117.00000      -   123 2451s
  3682  3446  126.00000  122 1062          -  117.00000      -   120 2619s
  3721  3446  132.00000   75 1227          -  117.00000      -   121 2620s
  3813  3585  126.00000  123 1061          -  117.00000      -   121 2655s
  3983  3728  129.00000  131 1135          -  117.00000      -   123 2694s
  3988  3728  123.00000   93 1640          -  117.00000      -   124 2695s
  4141  3914  131.00000  132 1183          -  117.00000      -   125 2713s
  4353  4149 infeasible  133               -  117.00000      -   124 2736s
  4629  4376  133.00000  134 1152          -  117.00000      -   121 2909s
  4901  4549  133.00000  142 1150          -  117.00000      -   120 2937s
  5103  4773  133.00000  149 1213          -  117.00000      -   121 3094s
  5345  4773  134.00000   86 1542          -  117.00000      -   120 3095s
  5361  5116  133.00000  154 1154          -  117.00000      -   120 3186s
  5747  5315  119.40000    8 1551          -  117.00000      -   117 3285s
  5983  5396  123.00000    9 1406          -  117.00000      -   118 3523s
  6073  5700  123.00000   11 1330          -  117.00000      -   119 3551s
  6418  5977  129.00000   14 1332          -  117.00000      -   118 3584s
  6758  6244  136.00000   15 1208          -  117.00000      -   116 3604s

Cutting planes:
  Learned: 6
  Gomory: 39
  Cover: 252
  Implied bound: 238
  Clique: 22
  MIR: 3373
  StrongCG: 41
  Zero half: 10
  RLT: 1598
  Relax-and-lift: 230

Explored 7093 nodes (1084760 simplex iterations) in 3607.71 seconds (182.61 work units)
Thread count was 32 (of 32 available processors)

Solution count 0

Time limit reached
Best objective -, best bound 1.170000000000e+02, gap -

Unable to retrieve attribute 'X'

